&CONTROL
  calculation = 'scf'
  etot_conv_thr =   1.2000000000d-04
  forc_conv_thr =   1.0000000000d-04
  outdir = '/tmp//'
  prefix = 'ZrO2_110_scf_4+vacuum'
  pseudo_dir = '/home/zczlx99/q-e/pseudo/DFT'
  tprnfor = .true.
  tstress = .true.
  verbosity = 'high'
/
&SYSTEM
  degauss =   1.4699723600d-02
  ecutrho =   4.0000000000d+02
  ecutwfc =   5.0000000000d+01
  ibrav = 0
  nat = 12
  nosym = .false.
  nspin = 2
  ntyp = 2
  occupations = 'smearing'
  smearing = 'cold'
  starting_magnetization(1) =   1.0000000000d-01
  starting_magnetization(2) =   4.1666666667d-01
/
&ELECTRONS
  conv_thr =   1.000000000d-06
  electron_maxstep = 500
  mixing_beta =   4.0000000000d-01
/
ATOMIC_SPECIES
O      15.9994 O.pbesol-n-kjpaw_psl.0.1.UPF
Zr     91.224 zr_pbesol_v1.uspp.F.UPF
ATOMIC_POSITIONS crystal
Zr    0.474590    1.478053    1.478053
Zr    5.536881    1.478053    1.478053
Zr    3.005736    3.267844    3.267844
Zr    8.068027    3.267844    3.267844
 O    1.740163    1.478053    3.267844
 O    6.802454    1.478053    3.267844
 O    4.271308    1.478053    3.267844
 O    9.333600    1.478053    3.267844
 O    1.740163    3.267844    1.478053
 O    6.802454    3.267844    1.478053
 O    4.271308    3.267844    1.478053
 O    9.333600    3.267844    1.478053
K_POINTS automatic
4 4 4 0 0 0
CELL_PARAMETERS angstrom
        10.1245832443         0.0000000000         0.0000000000
        0.0000000000         3.5795800686         0.0000000000
        0.0000000000         0.0000000000         13.5795800686