&CONTROL
  calculation = 'scf'
  etot_conv_thr =   6.3000000000d-04
  forc_conv_thr =   1.0000000000d-04
  outdir = './out/'
  prefix = 'aiida'
  pseudo_dir = '/home/zczlx99/q-e/pseudo/DFT'
  tprnfor = .true.
  tstress = .true.
  verbosity = 'high'
/
&SYSTEM
  degauss =   1.4699723600d-02
  ecutrho =   4.0000000000d+02
  ecutwfc =   5.0000000000d+01
  ibrav = 0
  nat = 63
  nosym = .false.
  nspin = 2
  ntyp = 3
  occupations = 'smearing'
  smearing = 'cold'
  starting_magnetization(1) =   2.7777777778d-01
  starting_magnetization(2) =   1.0000000000d-01
  starting_magnetization(3) =   4.1666666667d-01
/
&ELECTRONS
  conv_thr =   1.2600000000d-08
  mixing_beta =   4.0000000000d-01
/
ATOMIC_SPECIES
Ni     58.6934 ni_pbesol_v1.4.uspp.F.UPF
O      15.9994 O.pbesol-n-kjpaw_psl.0.1.UPF
Zr     91.224 zr_pbesol_v1.uspp.F.UPF

ATOMIC_POSITIONS {angstrom}
Zr      0.944354   1.942875   8.125960
Zr      2.743941   5.059852   8.125960
Zr      0.990182   6.178214  11.064679
Zr     -0.855230   2.981866  11.064679
Zr     -0.809409   7.217204  14.003372
Zr      0.990179  10.334181  14.003372
Zr     -0.809405   9.295191  11.064679
Zr     -2.654821   6.098836  11.064679
Zr      2.789766   7.217204  14.003372
Zr      0.944354   4.020856  14.003372
Zr      0.990179   8.256201   8.125960
Zr     -0.855234   5.059852   8.125960
O       0.944354   1.942875  10.329986
O       2.743941   5.059852  10.329986
O       0.944354   1.942875  14.738065
O       2.743941   5.059852  14.738065
O       0.990182   6.178214   8.860626
O      -0.855230   2.981866   8.860626
O       2.789766   7.217204   7.391267
O       0.944354   4.020856   7.391267
O       2.789766   7.217204  11.799346
O       0.944354   4.020856  11.799346
O       0.990182   6.178214  13.268705
O      -0.855230   2.981866  13.268705
O      -0.809409   7.217204  11.799346
O       0.990179  10.334181  11.799346
O       0.990179   8.256201  10.329986
O      -0.855234   5.059852  10.329986
O      -0.809405   9.295191   8.860626
O      -2.654821   6.098836   8.860626
O      -0.809405   9.295191  13.268705
O      -2.654821   6.098836  13.268705
O       0.990179   8.256201  14.738065
O      -0.855234   5.059852  14.738065
O      -0.809409   7.217204   7.391267
O       0.990179  10.334181   7.391267
Ni     -2.729197   6.108818   5.621278
Ni      2.149839   6.108818   5.621278
Ni     -1.509438   8.221502   5.621278
Ni     -0.275402   1.908177   5.621278
Ni     -0.289679  10.334187   5.621278
Ni      0.944358   4.020862   5.621278
Ni      0.930080   6.813050   1.637557
Ni     -1.495161   2.612410   1.637557
Ni     -0.275402   4.725095   1.637557
Ni     -1.509435   5.404591   3.629417
Ni     -0.289675   7.517276   3.629417
Ni      0.930080   9.629955   3.629417
Ni      2.149843   4.700359   1.637557
Ni     -1.509438   6.813050   1.637557
Ni     -0.275398   0.499719   1.637557
Ni     -0.289679   8.925735   1.637557
Ni      0.944361   2.612403   1.637557
Ni     -2.714920   4.725095   1.637557
Ni      0.930084   5.404591   3.629417
Ni     -2.729194   7.517276   3.629417
Ni      2.149839   7.517270   3.629417
Ni     -1.509438   9.629955   3.629417
Ni     -0.275402   3.316630   3.629417
Ni     -0.289679  11.742640   3.629417
Ni     -0.289679   6.108818   5.621278
Ni      0.930080   8.221502   5.621278
Ni     -1.495161   4.020862   5.621278
K_POINTS automatic
5 5 2 0 0 0
CELL_PARAMETERS angstrom
      7.2899999619       0.0000000000       0.0000000000
      3.6449999809       6.3133251606       0.0000000000
      0.0000000000       0.0000000000      26.3756217957
