&CONTROL
  calculation = 'scf'
  etot_conv_thr =   9.0000000000d-04
  forc_conv_thr =   1.0000000000d-04
  outdir = '/tmp//'
  prefix = 'aiida'
  pseudo_dir = '/home/zczlx99/q-e/pseudo/DFT'
  tprnfor = .true.
  tstress = .true.
  verbosity = 'high'
/

&SYSTEM
  degauss =   1.4699723600d-02
  ecutrho =   4.0000000000d+02
  ecutwfc =   5.0000000000d+01
  ibrav = 0
  nat = 90
  nosym = .false.
  nspin = 2
  ntyp = 3
  occupations = 'smearing'
  smearing = 'cold'
  starting_magnetization(1) =   2.7777777778d-01
  starting_magnetization(2) =   1.0000000000d-01
  starting_magnetization(3) =   4.1666666667d-01
/

&ELECTRONS
  conv_thr =   1.8000000000d-08
  mixing_beta =   4.0000000000d-01
  electron_maxstep = 500
/
ATOMIC_SPECIES
Ni     58.6934 ni_pbesol_v1.4.uspp.F.UPF
O      15.9994 O.pbesol-n-kjpaw_psl.0.1.UPF
Zr     91.224 zr_pbesol_v1.uspp.F.UPF
ATOMIC_POSITIONS crystal
Zr           0.1629936214       0.1716456815       0.3590043153 
Zr           0.6567072043       0.1716456815       0.3590043153 
Zr           0.5047086271       0.5007882407       0.4999671183 
Zr           0.9984223471       0.5007882407       0.4999671183 
Zr           0.3401372683       0.8299309582       0.6409298253 
Zr           0.8338509883       0.8299309582       0.6409298253 
Zr           0.5047082828       0.9945022378       0.4999671183 
Zr           0.9984221400       0.9945022378       0.4999671183 
Zr           0.8338509211       0.3362169611       0.6409298253 
Zr           0.3275647731       0.3362169611       0.6409298253 
Zr           0.6692797787       0.6653595202       0.3590043153 
Zr           0.1629934935       0.6653595202       0.3590043153 
O            0.1629936214       0.1716456815       0.4647263935 
O            0.6567072043       0.1716456815       0.4647263935 
O            0.1629936214       0.1716456815       0.6761705500 
O            0.6567072043       0.1716456815       0.6761705500 
O            0.5047086271       0.5007882407       0.3942450400 
O            0.9984223471       0.5007882407       0.3942450400 
O            0.8338509211       0.3362169611       0.3237636865 
O            0.3275647731       0.3362169611       0.3237636865 
O            0.8338509211       0.3362169611       0.5352077950 
O            0.3275647731       0.3362169611       0.5352077950 
O            0.5047086271       0.5007882407       0.6056892445 
O            0.9984223471       0.5007882407       0.6056892445 
O            0.3401372683       0.8299309582       0.5352077950 
O            0.8338509883       0.8299309582       0.5352077950 
O            0.6692797787       0.6653595202       0.4647263935 
O            0.1629934935       0.6653595202       0.4647263935 
O            0.5047082828       0.9945022378       0.3942450400 
O            0.9984221400       0.9945022378       0.3942450400 
O            0.5047082828       0.9945022378       0.6056892445 
O            0.9984221400       0.9945022378       0.6056892445 
O            0.6692797787       0.6653595202       0.6761705500 
O            0.1629934935       0.6653595202       0.6761705500 
O            0.3401372683       0.8299309582       0.3237636865 
O            0.8338509883       0.8299309582       0.3237636865 
Ni           0.0000000000       0.0000000000       0.2388611879 
Ni           0.6692780033       0.3307219170       0.2388611879 
Ni           0.3346389592       0.0000000000       0.2388611879 
Ni           0.0039169573       0.3307219170       0.2388611879 
Ni           0.6692779184       0.0000000000       0.2388611879 
Ni           0.3385561909       0.3307219170       0.2388611879 
Ni           0.5577315548       0.5538148141       0.0477722376 
Ni           0.8923705140       0.5538148141       0.0477722376 
Ni           0.2270097424       0.5538148141       0.0477722376 
Ni           0.1115463847       0.7769072359       0.1433167127 
Ni           0.4461853439       0.7769072359       0.1433167127 
Ni           0.7808244403       0.7769072359       0.1433167127 
Ni           0.5577316688       0.2191756269       0.0477722376 
Ni           0.2230926400       0.8884536844       0.0477722376 
Ni           0.8923706280       0.2191756269       0.0477722376 
Ni           0.5577315992       0.8884536844       0.0477722376 
Ni           0.2270097192       0.2191756269       0.0477722376 
Ni           0.8923706956       0.8884536844       0.0477722376 
Ni           0.4461853786       0.4422682072       0.1433167127 
Ni           0.1115463346       0.1115462901       0.1433167127 
Ni           0.7808243379       0.4422682072       0.1433167127 
Ni           0.4461854310       0.1115462901       0.1433167127 
Ni           0.1154634290       0.4422682072       0.1433167127 
Ni           0.7808242530       0.1115462901       0.1433167127 
Ni           0.3346390093       0.6653609458       0.2388611879 
Ni           0.6692779686       0.6653609458       0.2388611879 
Ni           0.0039170597       0.6653609458       0.2388611879 
Ni           0.4422686320       0.1115472405       0.9522277624 
Ni           0.1115466301       0.4422691575       0.9522277624 
Ni           0.7769075912       0.1115472405       0.9522277624 
Ni           0.4461855893       0.4422691575       0.9522277624 
Ni           0.1115465452       0.1115472405       0.9522277624 
Ni           0.7808246857       0.4422691575       0.9522277624 
Ni           0.0000001816       0.6653620546       0.7611388121 
Ni           0.3346391408       0.6653620546       0.7611388121 
Ni           0.6692782372       0.6653620546       0.7611388121 
Ni           0.5538150167       0.8884544764       0.8566832873 
Ni           0.8884539759       0.8884544764       0.8566832873 
Ni           0.2230929299       0.8884544764       0.8566832873 
Ni           0.0000002956       0.3307228674       0.7611388121 
Ni           0.6653612720       0.0000009249       0.7611388121 
Ni           0.3346392548       0.3307228674       0.7611388121 
Ni           0.0000002260       0.0000009249       0.7611388121 
Ni           0.6692782140       0.3307228674       0.7611388121 
Ni           0.3346391852       0.0000009249       0.7611388121 
Ni           0.8884540107       0.5538154477       0.8566832873 
Ni           0.5538149666       0.2230935306       0.8566832873 
Ni           0.2230929647       0.5538154477       0.8566832873 
Ni           0.8884539258       0.2230935306       0.8566832873 
Ni           0.5577319239       0.5538154477       0.8566832873 
Ni           0.2230928798       0.2230935306       0.8566832873 
Ni           0.7769076413       0.7769081863       0.9522277624 
Ni           0.1115465953       0.7769081863       0.9522277624 
Ni           0.4461855546       0.7769081863       0.9522277624 
K_POINTS automatic
5 5 2 0 0 0
CELL_PARAMETERS angstrom
      7.2899999619       0.0000000000       0.0000000000
      3.6449999809       6.3133251606       0.0000000000
      0.0000000000       0.0000000000      20.8474430000


