&CONTROL
  calculation = 'scf'
  outdir = '/tmp//'
  prefix = 'Ni(111)_ZrO2(111)+vacuum'
  pseudo_dir = '/home/zczlx99/q-e/pseudo/DFT'
  tprnfor      = .FALSE.
  tstress      = .FALSE.
/

&SYSTEM
    a                         =  7.29000e+00
    b                         =  1.26267e+01
    c                         =  2.08474e+01
    degauss                   =  1.00000e-02
    ecutrho                   =  2.25000e+03
    ecutwfc                   =  2.50000e+02
    ibrav                     = 9
    nat                       = 90
    nosym                     = .FALSE.
    nspin                     = 2
    ntyp                      = 3
    occupations               = "smearing"
    smearing                  = "gaussian"
    starting_magnetization(1) =  2.00000e-01
    starting_magnetization(2) =  0.00000e+00
    starting_magnetization(3) =  2.00000e-01
/

&ELECTRONS
    conv_thr         =  1.00000e-06
    mixing_beta      =  4.00000e-01
    electron_maxstep = 500
    startingpot      = "atomic"
    startingwfc      = "atomic+random"
/

K_POINTS {automatic}
 2  2  2  0 0 0

ATOMIC_SPECIES
Ni     58.6934 ni_pbesol_v1.4.uspp.F.UPF
O      15.9994 O.pbesol-n-kjpaw_psl.0.1.UPF
Zr     91.224 zr_pbesol_v1.uspp.F.UPF

ATOMIC_POSITIONS {angstrom}
Zr     -0.031537   2.112691   7.484315
Zr      1.768047   5.229662   7.484315
Zr      0.014292   6.348030  10.423034
Zr      1.813876   9.465000  10.423034
Zr     -1.785299   7.387020  13.361752
Zr      0.014288  10.503997  13.361752
Zr     -1.785299   9.465000  10.423034
Zr      0.014288  12.581977  10.423034
Zr      1.813876   7.387020  13.361752
Zr     -0.031537   4.190672  13.361752
Zr      0.014288   8.426016   7.484315
Zr     -1.831128   5.229662   7.484315
O      -0.031537   2.112691   9.688349
O       1.768047   5.229662   9.688349
O      -0.031537   2.112691  14.096436
O       1.768047   5.229662  14.096436
O       0.014292   6.348030   8.219000
O       1.813876   9.465000   8.219000
O       1.813876   7.387020   6.749652
O      -0.031537   4.190672   6.749652
O       1.813876   7.387020  11.157718
O      -0.031537   4.190672  11.157718
O       0.014292   6.348030  12.627067
O       1.813876   9.465000  12.627067
O      -1.785299   7.387020  11.157718
O       0.014288  10.503997  11.157718
O       0.014288   8.426016   9.688349
O      -1.831128   5.229662   9.688349
O      -1.785299   9.465000   8.219000
O       0.014288  12.581977   8.219000
O      -1.785299   9.465000  12.627067
O       0.014288  12.581977  12.627067
O       0.014288   8.426016  14.096436
O      -1.831128   5.229662  14.096436
O      -1.785299   7.387020   6.749652
O       0.014288  10.503997   6.749652
Ni      0.000000   0.000000   4.979641
Ni      1.234037   6.313325   4.979641
Ni      1.219759   2.112685   4.979641
Ni     -1.191204   2.112685   4.979641
Ni     -1.205482  10.538695   4.979641
Ni      0.028555   4.225370   4.979641
Ni      0.014277   7.017558   0.995924
Ni      1.234037   9.130243   0.995924
Ni     -1.191204   4.929602   0.995924
Ni     -2.425241   5.609093   2.987793
Ni     -1.205482   7.721778   2.987793
Ni      0.014277   9.834462   2.987793
Ni      1.234037   4.904873   0.995924
Ni     -2.425241   7.017558   0.995924
Ni      2.453796   7.017558   0.995924
Ni     -1.205482   9.130243   0.995924
Ni      0.028555   2.816917   0.995924
Ni      0.014277  11.242927   0.995924
Ni      0.014277   5.609093   2.987793
Ni      0.000000   1.408452   2.987793
Ni      1.234037   7.721778   2.987793
Ni      1.219759   3.521137   2.987793
Ni     -1.191204   3.521137   2.987793
Ni      2.439518   5.633822   2.987793
Ni     -1.205482   6.313325   4.979641
Ni      0.014277   8.426010   4.979641
Ni     -2.410963   4.225370   4.979641
Ni      1.205482   3.496421  19.851519
Ni     -1.205482   3.496421  19.851519
Ni      2.425241   5.609105  19.851519
Ni      0.014277   5.609105  19.851519
Ni      0.000000   1.408465  19.851519
Ni      1.234037   7.721790  19.851519
Ni      1.219756  10.513972  15.867802
Ni     -1.205485   6.313332  15.867802
Ni      0.014274   8.426016  15.867802
Ni     -1.219759   9.105513  17.859650
Ni      0.000000  11.218198  17.859650
Ni     -2.425241   7.017558  17.859650
Ni     -1.205485   2.087962  15.867802
Ni      2.425237   4.200647  15.867802
Ni      0.014274   4.200647  15.867802
Ni     -0.000004   0.000006  15.867802
Ni      1.234033   6.313332  15.867802
Ni      1.219756   2.112691  15.867802
Ni      1.219759   9.105513  17.859650
Ni      1.205478   4.904879  17.859650
Ni     -1.205482   4.904873  17.859650
Ni      2.425237   7.017564  17.859650
Ni      0.014277   7.017558  17.859650
Ni     -0.000004   2.816924  17.859650
Ni      0.000000   9.809746  19.851519
Ni     -2.425241   5.609105  19.851519
Ni     -1.205482   7.721790  19.851519 