&CONTROL
 calculation = "scf"
 prefix = ZrO2(111)+vacuum'
 pseudo_dir = '/home/zczlx99/q-e/pseudo/DFT'
restart_mode = "from_scratch"
 tprnfor     = .FALSE.
 tstress     = .FALSE.
/
&SYSTEM
    a                         =  7.29000e+00
    b                         =  1.26267e+01
    c                         =  1.88161e+01
    degauss                   =  1.00000e-02
    ecutrho                   =  2.25000e+02
    ecutwfc                   =  2.50000e+01
    ibrav                     = 9
    nat                       = 36
    nspin                     = 2
    ntyp                      = 2
    occupations               = "smearing"
    smearing                  = "gaussian"
    starting_magnetization(1) =  2.00000e-01
    starting_magnetization(2) =  0.00000e+00
/
&ELECTRONS
    conv_thr         =  1.00000e-06
    electron_maxstep = 200
    mixing_beta      =  4.00000e-01
    startingpot      = "atomic"
    startingwfc      = "atomic+random"
/

K_POINTS {automatic}
 2  2  2  0 0 0
ATOMIC_SPECIES
O      15.9994 O.pbesol-n-kjpaw_psl.0.1.UPF
Zr     91.224 zr_pbesol_v1.uspp.F.UPF

ATOMIC_POSITIONS {angstrom}
Zr      0.568791   4.973694   1.653017
Zr      2.368375   8.090665   1.653017
Zr      0.614616   9.209039   4.591740
Zr     -1.230796   6.012691   4.591740
Zr     -1.184971  10.248023   7.530445
Zr     -3.030384   7.051675   7.530445
Zr      2.460032   6.012685   4.591740
Zr      0.614616   2.816330   4.591740
Zr     -1.230796   3.934698   7.530445
Zr      0.568791   7.051675   7.530445
Zr      0.614616  11.287020   1.653017
Zr     -1.230796   8.090671   1.653017
O       0.568791   4.973694   3.857064
O       2.368375   8.090665   3.857064
O       0.568791   4.973694   8.265140
O       2.368375   8.090665   8.265140
O       0.614616   9.209039   2.387712
O      -1.230796   6.012691   2.387712
O      -1.230796   3.934698   0.918340
O       0.568791   7.051675   0.918340
O      -1.230796   3.934698   5.326416
O       0.568791   7.051675   5.326416
O       0.614616   9.209039   6.795768
O      -1.230796   6.012691   6.795768
O      -1.184971  10.248023   5.326416
O      -3.030384   7.051675   5.326416
O       0.614616  11.287020   3.857064
O      -1.230796   8.090671   3.857064
O       2.460032   6.012685   2.387712
O       0.614616   2.816330   2.387712
O       2.460032   6.012685   6.795768
O       0.614616   2.816330   6.795768
O       0.614616  11.287020   8.265140
O      -1.230796   8.090671   8.265140
O      -1.184971  10.248023   0.918340
O      -3.030384   7.051675   0.918340

