&CONTROL
  calculation = 'scf'
  etot_conv_thr =   6.0000000000d-05
  forc_conv_thr =   1.0000000000d-04
  outdir = '/tmp//'
  prefix = 'a-20%_ZrO2_110_scf'
  pseudo_dir = '/home/zczlx99/q-e/pseudo/DFT'
  tprnfor = .true.
  tstress = .true.
  verbosity = 'high'
/
&SYSTEM
  degauss =   1.4699723600d-02
  ecutrho =   4.0000000000d+02
  ecutwfc =   5.0000000000d+01
  ibrav = 0
  nat = 6
  nosym = .false.
  nspin = 2
  ntyp = 2
  occupations = 'smearing'
  smearing = 'cold'
  starting_magnetization(1) =   1.0000000000d-01
  starting_magnetization(2) =   4.1666666667d-01
/
&ELECTRONS
  conv_thr =   1.2000000000d-09
  electron_maxstep = 80
  mixing_beta =   4.0000000000d-01
/
ATOMIC_SPECIES
O      15.9994  O.pbesol-n-kjpaw_psl.0.1.UPF
Zr     91.224  zr_pbesol_v1.uspp.F.UPF
ATOMIC_POSITIONS crystal
Zr           0.0000000000       0.0000000000       0.0000000000 
Zr           0.5000000000       0.5000000000       0.5000000000 
O            0.2500000000       0.0000000000       0.5000000000 
O            0.7500000000       0.0000000000       0.5000000000 
O            0.2500000000       0.5000000000       0.0000000000 
O            0.7500000000       0.5000000000       0.0000000000 
K_POINTS automatic
8 9 9 0 0 0
CELL_PARAMETERS angstrom
              4.072         0.0000000000         0.0000000000
        0.0000000000         2.8793388130          0.0000000000
        0.0000000000         0.0000000000         2.8793388130 