&CONTROL
  calculation = 'scf'
  etot_conv_thr =   2.7000000000d-04
  forc_conv_thr =   1.0000000000d-04
  outdir = '/tmp//'
  prefix = 'ni_111_slab+vacuum_scf'
  pseudo_dir = '/home/zczlx99/q-e/pseudo'
  tprnfor = .true.
  tstress = .true.
  verbosity = 'high'
/
&SYSTEM
  degauss =   1.4699723600d-02
  ecutrho =   3.6000000000d+02
  ecutwfc =   4.5000000000d+01
  ibrav = 0
  nat = 27
  nosym = .false.
  nspin = 2
  ntyp = 1
  occupations = 'smearing'
  smearing = 'cold'
  starting_magnetization(1) =   2.7777777778d-01
/
&ELECTRONS
  conv_thr =   5.4000000000d-09
  electron_maxstep = 80
  mixing_beta =   4.0000000000d-01
/
ATOMIC_SPECIES
Ni     58.6934 ni_pbesol_v1.4.uspp.F.UPF
ATOMIC_POSITIONS crystal
Ni    4.850482    4.225370    0.000000
Ni   10.935000    6.313325    0.000000
Ni    7.290000    4.225370    0.000000
Ni    6.084518    6.313325    0.000000
Ni    9.729518    4.225370    0.000000
Ni    8.524037    6.313325    0.000000
Ni    7.290000    1.408457    1.991858
Ni    2.439518    1.408457    1.991858
Ni    4.879037    1.408457    1.991858
Ni    4.850482    2.816913    3.983716
Ni    7.290000    2.816913    3.983716
Ni    2.439518    2.816913    3.983716
Ni    9.715241    5.609097    1.991858
Ni    6.070241    3.521142    1.991858
Ni    4.864759    5.609097    1.991858
Ni    8.509759    3.521142    1.991858
Ni    7.304277    5.609097    1.991858
Ni    3.659277    3.521142    1.991858
Ni    6.070241    0.704228    3.983716
Ni    6.070241    4.929598    3.983716
Ni    1.219759    0.704228    3.983716
Ni    8.509759    4.929598    3.983716
Ni    3.659277    0.704228    3.983716
Ni    3.659277    4.929598    3.983716
Ni    6.070241    2.112685    0.000000
Ni    8.509759    2.112685    0.000000
Ni    3.659277    2.112685    0.000000
K_POINTS automatic
2 2 2 0 0 0
CELL_PARAMETERS angstrom
      7.2900000000       0.0000000000       0.0000000000
      3.6450000000       6.3133251937       0.0000000000
      0.0000000000       0.0000000000       15.9755740000