&CONTROL
  calculation = 'scf'
  etot_conv_thr =   1.8000000000d-04
  forc_conv_thr =   1.0000000000d-04
  outdir = '/tmp//'
  prefix = 'ZrO2_111_scf'
  pseudo_dir = '/home/zczlx99/q-e/pseudo/DFT'
  tprnfor = .true.
  tstress = .true.
  verbosity = 'high'
/
&SYSTEM
  degauss =   1.4699723600d-02
  ecutrho =   4.0000000000d+02
  ecutwfc =   5.0000000000d+01
  ibrav = 0
  nat = 18
  nosym = .false.
  nspin = 2
  ntyp = 2
  occupations = 'smearing'
  smearing = 'cold'
  starting_magnetization(1) =   1.0000000000d-01
  starting_magnetization(2) =   4.1666666667d-01
/
&ELECTRONS
  conv_thr =   3.6000000000d-09
  electron_maxstep = 80
  mixing_beta =   4.0000000000d-01
/
ATOMIC_SPECIES
O      15.9994 O.pbesol-n-kjpaw_psl.0.1.UPF
Zr     91.224 zr_pbesol_v1.uspp.F.UPF
ATOMIC_POSITIONS crystal
Zr           0.0000000000       0.0000000000       0.0000000000 
Zr           0.0000000000       0.3333333657       0.3333333481 
Zr           0.0000000000       0.6666667313       0.6666666961 
Zr           0.5000000672       0.8333334142       0.3333333481 
Zr           0.5000000672       0.1666666828       0.6666666961 
Zr           0.5000000672       0.5000000485       0.0000000000 
O            0.0000000000       0.0000000000       0.2500000394 
O            0.0000000000       0.0000000000       0.7500000048 
O            0.0000000000       0.3333333657       0.0833333087 
O            0.5000000672       0.1666666828       0.9166667355 
O            0.5000000672       0.1666666828       0.4166666567 
O            0.0000000000       0.3333333657       0.5833333875 
O            0.0000000000       0.6666667313       0.4166666567 
O            0.5000000672       0.5000000485       0.2500000394 
O            0.5000000672       0.8333334142       0.0833333087 
O            0.5000000672       0.8333334142       0.5833333875 
O            0.5000000672       0.5000000485       0.7500000048 
O            0.0000000000       0.6666667313       0.9166667355 
K_POINTS automatic
9 6 4 0 0 0
CELL_PARAMETERS angstrom
      3.5991735162       0.0000000000       0.0000000000
      0.0000000000       6.2339513952       0.0000000000
      0.0000000000       0.0000000000       8.8161386106
